node 0 w: 11.0, h: 11.0
node 1 w: 11.0, h: 10.0
node 2 w: 6.0, h: 6.0
node 3 w: 8.0, h: 5.0
node 4 w: 8.0, h: 8.0
node 5 w: 6.0, h: 9.0
node 6 w: 12.0, h: 12.0
node 7 w: 6.0, h: 6.0
node 8 w: 8.0, h: 9.0
node 9 w: 8.0, h: 9.0
node 10 w: 10.0, h: 9.0
连接统计: 总计 21 对
连接关系（EMIBNode 内容）:
  (A,B): node1=A, node2=B, wireCount=256, EMIBType=interfaceB, EMIB_length=0.8533, EMIB_max_width=3.0, width=2.0, height=0.8533, bump_width=1.0000
  (A,D): node1=A, node2=D, wireCount=256, EMIBType=interfaceB, EMIB_length=0.8533, EMIB_max_width=3.0, width=2.0, height=0.8533, bump_width=1.0000
  (A,E): node1=A, node2=E, wireCount=256, EMIBType=interfaceB, EMIB_length=0.8533, EMIB_max_width=3.0, width=2.0, height=0.8533, bump_width=1.0000
  (A,K): node1=A, node2=K, wireCount=128, EMIBType=interfaceC, EMIB_length=3.2, EMIB_max_width=99.0, width=1.0, height=3.2, bump_width=0.5000
  (B,C): node1=B, node2=C, wireCount=256, EMIBType=interfaceB, EMIB_length=0.8533, EMIB_max_width=3.0, width=2.0, height=0.8533, bump_width=1.0000
  (B,E): node1=B, node2=E, wireCount=128, EMIBType=interfaceC, EMIB_length=3.2, EMIB_max_width=99.0, width=1.0, height=3.2, bump_width=0.5000
  (B,G): node1=B, node2=G, wireCount=256, EMIBType=interfaceB, EMIB_length=0.8533, EMIB_max_width=3.0, width=2.0, height=0.8533, bump_width=1.0000
  (B,I): node1=B, node2=I, wireCount=128, EMIBType=interfaceC, EMIB_length=3.2, EMIB_max_width=99.0, width=1.0, height=3.2, bump_width=0.5000
  (B,K): node1=B, node2=K, wireCount=256, EMIBType=interfaceB, EMIB_length=0.8533, EMIB_max_width=3.0, width=2.0, height=0.8533, bump_width=1.0000
  (C,D): node1=C, node2=D, wireCount=128, EMIBType=interfaceC, EMIB_length=3.2, EMIB_max_width=99.0, width=1.0, height=3.2, bump_width=0.5000
  (C,F): node1=C, node2=F, wireCount=512, EMIBType=interfaceB, EMIB_length=1.7067, EMIB_max_width=3.0, width=2.0, height=1.7067, bump_width=1.0000
  (C,I): node1=C, node2=I, wireCount=128, EMIBType=interfaceC, EMIB_length=3.2, EMIB_max_width=99.0, width=1.0, height=3.2, bump_width=0.5000
  (C,K): node1=C, node2=K, wireCount=256, EMIBType=interfaceB, EMIB_length=0.85332026-03-05 18:28:12 - INFO - Set parameter WLSAccessID
2026-03-05 18:28:12 - INFO - Set parameter WLSSecret
2026-03-05 18:28:12 - INFO - Set parameter LicenseID to value 2756663
2026-03-05 18:28:13 - INFO - Academic license 2756663 - for non-commercial use only - registered to hu___@sjtu.edu.cn
2026-03-05 18:28:13 - INFO - Set parameter TimeLimit to value 300
2026-03-05 18:28:13 - INFO - Set parameter MIPGap to value 0
2026-03-05 18:28:13 - INFO - Set parameter MIPFocus to value 3
2026-03-05 18:28:13 - INFO - Set parameter Heuristics to value 0.5
2026-03-05 18:28:13 - INFO - Set parameter LogToConsole to value 1
2026-03-05 18:28:13 - INFO - Gurobi Optimizer version 13.0.0 build v13.0.0rc1 (linux64 - "Ubuntu 20.04.6 LTS")
2026-03-05 18:28:13 - INFO - 
2026-03-05 18:28:13 - INFO - CPU model: AMD Ryzen 9 9950X3D 16-Core Processor, instruction set [SSE2|AVX|AVX2|AVX512]
2026-03-05 18:28:13 - INFO - Thread count: 6 physical cores, 12 logical processors, using up to 12 threads
2026-03-05 18:28:13 - INFO - 
2026-03-05 18:28:13 - INFO - Non-default parameters:
2026-03-05 18:28:13 - INFO - TimeLimit  300
2026-03-05 18:28:13 - INFO - MIPGap  0
2026-03-05 18:28:13 - INFO - Heuristics  0.5
2026-03-05 18:28:13 - INFO - MIPFocus  3
2026-03-05 18:28:13 - INFO - 
2026-03-05 18:28:13 - INFO - Academic license 2756663 - for non-commercial use only - registered to hu___@sjtu.edu.cn
2026-03-05 18:28:13 - INFO - Optimize a model with 1962 rows, 894 columns and 6804 nonzeros (Min)
2026-03-05 18:28:13 - INFO - Model fingerprint: 0x852bb3d0
2026-03-05 18:28:13 - INFO - Model has 3 linear objective coefficients
2026-03-05 18:28:13 - INFO - Variable types: 321 continuous, 573 integer (573 binary)
2026-03-05 18:28:13 - INFO - Coefficient statistics:
2026-03-05 18:28:13 - INFO -   Matrix range     [3e-01, 5e+02]
2026-03-05 18:28:13 - INFO -   Objective range  [7e-05, 1e-01]
2026-03-05 18:28:13 - INFO -   Bounds range     [9e-01, 2e+07]
2026-03-05 18:28:13 - INFO -   RHS range        [9e-01, 2e+02]
2026-03-05 18:28:13 - INFO - Presolve removed 158 rows and 141 columns
2026-03-05 18:28:13 - INFO - Presolve time: 0.01s
2026-03-05 18:28:13 - INFO - Presolved: 1804 rows, 753 columns, 6134 nonzeros
2026-03-05 18:28:13 - INFO - Variable types: 217 continuous, 536 integer (536 binary)
2026-03-05 18:28:13 - INFO - Root relaxation presolve removed 140 rows and 24 columns
2026-03-05 18:28:13 - INFO - Root relaxation presolved: 1664 rows, 773 columns, 5850 nonzeros
2026-03-05 18:28:13 - INFO - 
2026-03-05 18:28:13 - INFO - 
2026-03-05 18:28:13 - INFO - Root relaxation: objective 1.988573e+00, 392 iterations, 0.01 seconds (0.01 work units)
2026-03-05 18:28:13 - INFO - 
2026-03-05 18:28:13 - INFO -     Nodes    |    Current Node    |     Objective Bounds      |     Work
2026-03-05 18:28:13 - INFO -  Expl Unexpl |  Obj  Depth IntInf | Incumbent    BestBd   Gap | It/Node Time
2026-03-05 18:28:13 - INFO - 
2026-03-05 18:28:13 - INFO -      0     0    1.98857    0  220          -    1.98857      -     -    0s
2026-03-05 18:28:13 - INFO -      0     0    3.38846    0  258          -    3.38846      -     -    0s
2026-03-05 18:28:13 - INFO -      0     0    3.38846    0  228          -    3.38846      -     -    0s
2026-03-05 18:28:13 - INFO -      0     0    3.84316    0  236          -    3.84316      -     -    0s
2026-03-05 18:28:13 - INFO -      0     0    3.84316    0  274          -    3.84316      -     -    0s
2026-03-05 18:28:13 - INFO -      0     0    3.84316    0  274          -    3.84316      -     -    0s
2026-03-05 18:28:13 - INFO -      0     0    3.84316    0  243          -    3.84316      -     -    0s
2026-03-05 18:28:13 - INFO -      0     0    4.15528    0  256          -    4.15528      -     -    0s
2026-03-05 18:28:14 - INFO -      0     0    4.45842    0  280          -    4.45842      -     -    0s
2026-03-05 18:28:14 - INFO -      0     0    4.45842    0  279          -    4.45842      -     -    0s
2026-03-05 18:28:14 - INFO -      0     0    4.45842    0  259          -    4.45842      -     -    1s
2026-03-05 18:28:14 - INFO -      0     0    4.54229    0  259          -    4.54229      -     -    1s
2026-03-05 18:28:14 - INFO -      0     0    4.54229    0  249          -    4.54229      -     -    1s
2026-03-05 18:28:15 - INFO -      0     2    4.54229    0  249          -    4.54229      -     -    2s
2026-03-05 18:28:18 - INFO -   1416  1264    5.30064   11  290          -    4.55897      -   101    5s
2026-03-05 18:28:23 - INFO -   2741  1856    6.29712   22  186          -    6.03885      -   128   10s
2026-03-05 18:28:28 - INFO -   5106  2020 infeasible   24               -    6.31576      -   125   15s
2026-03-05 18:28:33 - INFO -   9862  2953 infeasible   22               -    6.75680      -   112   20s
2026-03-05 18:28:38 - INFO -  15421  2902 infeasible   26               -    7.35767      -   104   25s
2026-03-05 18:28:43 - INFO -  19777  3252 infeasible   31               -    8.03561      -  95.0   30s
2026-03-05 18:28:48 - INFO -  25616  2701 infeasible   40               -    8.50598      -  83.9   35s
2026-03-05 18:28:53 - INFO -  30300  1045 infeasible   27               -    8.97364      -  78.2   40s
2026-03-05 18:28:54 - INFO - 
2026-03-05 18:28:54 - INFO - Cutting planes:
2026-03-05 18:28:54 - INFO -   Learned: 32
2026-03-05 18:28:54 - INFO -   Gomory: 204
2026-03-05 18:28:54 - INFO -   Lift-and-project: 98
2026-03-05 18:28:54 - INFO -   Cover: 7
2026-03-05 18:28:54 - INFO -   Implied bound: 8
2026-03-05 18:28:54 - INFO -   MIR: 58
2026-03-05 18:28:54 - INFO -   Mixing: 3
2026-03-05 18:28:54 - INFO -   Flow cover: 420
2026-03-05 18:28:54 - INFO -   Inf proof: 26
2026-03-05 18:28:54 - INFO -   RLT: 5
2026-03-05 18:28:54 - INFO -   Relax-and-lift: 5
2026-03-05 18:28:54 - INFO -   PSD: 1
2026-03-05 18:28:54 - INFO - 
2026-03-05 18:28:54 - INFO - Explored 32998 nodes (2484326 simplex iterations) in 41.51 seconds (92.86 work units)
2026-03-05 18:28:54 - INFO - Thread count was 12 (of 12 available processors)
2026-03-05 18:28:54 - INFO - 
2026-03-05 18:28:54 - INFO - Solution count 0
2026-03-05 18:28:54 - INFO - 
2026-03-05 18:28:54 - INFO - Model is infeasible
2026-03-05 18:28:54 - INFO - Best objective -, best bound -, gap -
2026-03-05 18:28:54 - INFO - Set parameter TimeLimit to value 300
2026-03-05 18:28:54 - INFO - Set parameter MIPGap to value 0.3
2026-03-05 18:28:54 - INFO - Set parameter MIPFocus to value 3
2026-03-05 18:28:54 - INFO - Set parameter Heuristics to value 0.5
2026-03-05 18:28:54 - INFO - Set parameter LogToConsole to value 1
2026-03-05 18:28:54 - INFO - Gurobi Optimizer version 13.0.0 build v13.0.0rc1 (linux64 - "Ubuntu 20.04.6 LTS")
2026-03-05 18:28:54 - INFO - 
2026-03-05 18:28:54 - INFO - CPU model: AMD Ryzen 9 9950X3D 16-Core Processor, instruction set [SSE2|AVX|AVX2|AVX512]
2026-03-05 18:28:54 - INFO - Thread count: 6 physical cores, 12 logical processors, using up to 12 threads
2026-03-05 18:28:54 - INFO - 
2026-03-05 18:28:54 - INFO - Non-default parameters:
2026-03-05 18:28:54 - INFO - TimeLimit  300
2026-03-05 18:28:54 - INFO - MIPGap  0.3
2026-03-05 18:28:54 - INFO - Heuristics  0.5
2026-03-05 18:28:54 - INFO - MIPFocus  3
2026-03-05 18:28:54 - INFO - 
2026-03-05 18:28:54 - INFO - Academic license 2756663 - for non-commercial use only - registered to hu___@sjtu.edu.cn
2026-03-05 18:28:54 - INFO - Optimize a model with 1962 rows, 894 columns and 6804 nonzeros (Min)
2026-03-05 18:28:54 - INFO - Model fingerprint: 0x852bb3d0
2026-03-05 18:28:54 - INFO - Model has 3 linear objective coefficients
2026-03-05 18:28:54 - INFO - Variable types: 321 continuous, 573 integer (573 binary)
2026-03-05 18:28:54 - INFO - Coefficient statistics:
2026-03-05 18:28:54 - INFO -   Matrix range     [3e-01, 5e+02]
2026-03-05 18:28:54 - INFO -   Objective range  [7e-05, 1e-01]
2026-03-05 18:28:54 - INFO -   Bounds range     [9e-01, 2e+07]
2026-03-05 18:28:54 - INFO -   RHS range        [9e-01, 2e+02]
2026-03-05 18:28:54 - INFO - Presolved: 1804 rows, 753 columns, 6134 nonzeros
2026-03-05 18:28:54 - INFO - 
2026-03-05 18:28:54 - INFO - Continuing optimization...
2026-03-05 18:28:54 - INFO - 
2026-03-05 18:28:54 - INFO - 
2026-03-05 18:28:54 - INFO - Cutting planes:
2026-03-05 18:28:54 - INFO -   Learned: 32
2026-03-05 18:28:54 - INFO -   Gomory: 204
2026-03-05 18:28:54 - INFO -   Lift-and-project: 98
2026-03-05 18:28:54 - INFO -   Cover: 7
2026-03-05 18:28:54 - INFO -   Implied bound: 8
2026-03-05 18:28:54 - INFO -   MIR: 58
2026-03-05 18:28:54 - INFO -   Mixing: 3
2026-03-05 18:28:54 - INFO -   Flow cover: 420
2026-03-05 18:28:54 - INFO -   Inf proof: 26
2026-03-05 18:28:54 - INFO -   RLT: 5
2026-03-05 18:28:54 - INFO -   Relax-and-lift: 5
2026-03-05 18:28:54 - INFO -   PSD: 1
2026-03-05 18:28:54 - INFO - 
2026-03-05 18:28:54 - INFO - Explored 32998 nodes (2484326 simplex iterations) in 41.51 seconds (92.86 work units)
2026-03-05 18:28:54 - INFO - Most recent optimization runtime was 0.00 seconds (0.00 work units)
2026-03-05 18:28:54 - INFO - Thread count was 12 (of 12 available processors)
2026-03-05 18:28:54 - INFO - 
2026-03-05 18:28:54 - INFO - Solution count 0
2026-03-05 18:28:54 - INFO - 
2026-03-05 18:28:54 - INFO - Model is infeasible
2026-03-05 18:28:54 - INFO - Best objective -, best bound -, gap -
2026-03-05 18:28:54 - INFO - Set parameter TimeLimit to value 3600
2026-03-05 18:28:54 - INFO - Set parameter MIPGap to value 0.8
2026-03-05 18:28:54 - INFO - Set parameter MIPFocus to value 3
2026-03-05 18:28:54 - INFO - Set parameter Heuristics to value 0.5
2026-03-05 18:28:54 - INFO - Set parameter LogToConsole to value 1
2026-03-05 18:28:54 - INFO - Gurobi Optimizer version 13.0.0 build v13.0.0rc1 (linux64 - "Ubuntu 20.04.6 LTS")
2026-03-05 18:28:54 - INFO - 
2026-03-05 18:28:54 - INFO - CPU model: AMD Ryzen 9 9950X3D 16-Core Processor, instruction set [SSE2|AVX|AVX2|AVX512]
2026-03-05 18:28:54 - INFO - Thread count: 6 physical cores, 12 logical processors, using up to 12 threads
2026-03-05 18:28:54 - INFO - 
2026-03-05 18:28:54 - INFO - Non-default parameters:
2026-03-05 18:28:54 - INFO - TimeLimit  3600
2026-03-05 18:28:54 - INFO - MIPGap  0.8
2026-03-05 18:28:54 - INFO - Heuristics  0.5
2026-03-05 18:28:54 - INFO - MIPFocus  3
2026-03-05 18:28:54 - INFO - 
2026-03-05 18:28:54 - INFO - Academic license 2756663 - for non-commercial use only - registered to hu___@sjtu.edu.cn
2026-03-05 18:28:54 - INFO - Optimize a model with 1962 rows, 894 columns and 6804 nonzeros (Min)
2026-03-05 18:28:54 - INFO - Model fingerprint: 0x852bb3d0
2026-03-05 18:28:54 - INFO - Model has 3 linear objective coefficients
2026-03-05 18:28:54 - INFO - Variable types: 321 continuous, 573 integer (573 binary)
2026-03-05 18:28:54 - INFO - Coefficient statistics:
2026-03-05 18:28:54 - INFO -   Matrix range     [3e-01, 5e+02]
2026-03-05 18:28:54 - INFO -   Objective range  [7e-05, 1e-01]
2026-03-05 18:28:54 - INFO -   Bounds range     [9e-01, 2e+07]
2026-03-05 18:28:54 - INFO -   RHS range        [9e-01, 2e+02]
2026-03-05 18:28:54 - INFO - Presolved: 1804 rows, 753 columns, 6134 nonzeros
2026-03-05 18:28:54 - INFO - 
2026-03-05 18:28:54 - INFO - Continuing optimization...
2026-03-05 18:28:54 - INFO - 
2026-03-05 18:28:54 - INFO - 
2026-03-05 18:28:54 - INFO - Cutting planes:
2026-03-05 18:28:54 - INFO -   Learned: 32
2026-03-05 18:28:54 - INFO -   Gomory: 204
2026-03-05 18:28:54 - INFO -   Lift-and-project: 98
2026-03-05 18:28:54 - INFO -   Cover: 7
2026-03-05 18:28:54 - INFO -   Implied bound: 8
2026-03-05 18:28:54 - INFO -   MIR: 58
2026-03-05 18:28:54 - INFO -   Mixing: 3
2026-03-05 18:28:54 - INFO -   Flow cover: 420
2026-03-05 18:28:54 - INFO -   Inf proof: 26
2026-03-05 18:28:54 - INFO -   RLT: 5
2026-03-05 18:28:54 - INFO -   Relax-and-lift: 5
2026-03-05 18:28:54 - INFO -   PSD: 1
2026-03-05 18:28:54 - INFO - 
2026-03-05 18:28:54 - INFO - Explored 32998 nodes (2484326 simplex iterations) in 41.51 seconds (92.86 work units)
2026-03-05 18:28:54 - INFO - Most recent optimization runtime was 0.00 seconds (0.00 work units)
2026-03-05 18:28:54 - INFO - Thread count was 12 (of 12 available processors)
2026-03-05 18:28:54 - INFO - 
2026-03-05 18:28:54 - INFO - Solution count 0
2026-03-05 18:28:54 - INFO - 
2026-03-05 18:28:54 - INFO - Model is infeasible
2026-03-05 18:28:54 - INFO - Best objective -, best bound -, gap -
2026-03-05 18:28:54 - INFO - 
EMIB求解返回 0 个解（最多1个）。
EMIB] 第二阶段无可行解，切换到第三阶段 MIPGap=0.8 继续尝试。
Set parameter TimeLimit to value 3600
Set parameter MIPGap to value 0.8
Set parameter MIPFocus to value 3
Set parameter Heuristics to value 0.5
Set parameter LogToConsole to value 1
Gurobi Optimizer version 13.0.0 build v13.0.0rc1 (linux64 - "Ubuntu 20.04.6 LTS")

CPU model: AMD Ryzen 9 9950X3D 16-Core Processor, instruction set [SSE2|AVX|AVX2|AVX512]
Thread count: 6 physical cores, 12 logical processors, using up to 12 threads

Non-default parameters:
TimeLimit  3600
MIPGap  0.8
Heuristics  0.5
MIPFocus  3

Academic license 2756663 - for non-commercial use only - registered to hu___@sjtu.edu.cn
Optimize a model with 1962 rows, 894 columns and 6804 nonzeros (Min)
Model fingerprint: 0x852bb3d0
Model has 3 linear objective coefficients
Variable types: 321 continuous, 573 integer (573 binary)
Coefficient statistics:
  Matrix range     [3e-01, 5e+02]
  Objective range  [7e-05, 1e-01]
  Bounds range     [9e-01, 2e+07]
  RHS range        [9e-01, 2e+02]
Presolved: 1804 rows, 753 columns, 6134 nonzeros

Continuing optimization...


Cutting planes:
  Learned: 32
  Gomory: 204
  Lift-and-project: 98
  Cover: 7
  Implied bound: 8
  MIR: 58
  Mixing: 3
  Flow cover: 420
  Inf proof: 26
  RLT: 5
  Relax-and-lift: 5
  PSD: 1

Explored 32998 nodes (2484326 simplex iterations) in 41.51 seconds (92.86 work units)
Most recent optimization runtime was 0.00 seconds (0.00 work units)
Thread count was 12 (of 12 available processors)

Solution count 0

Model is infeasible
Best objective -, best bound -, gap -
[EMIB] 单次求解无可行解: MIPGap=0.8, 状态码=3, 用时=0.00s, SolCount=0
[EMIB] 搜索解失败，无合法解
  ✓ EMIB求解：返回 0 个解
